set VV := 0 1 2 3 4 5 6 7 8 9 10 11 12 13 14 15 16 17 18 19 20 21 22 23 24 25 26 ;
set VS := 0 1 2 3 4 5 6 7 8 9 10 11 12 13 14 15 16 17 18 19 20 21 22 23 24 25 26 27 28 29 30 31 32 33 34 35 36 37 38 39 40 41 42 43 44 45 46 47 48 49 50 51 52 53 54 55 56 57 58 ;
param cv := 
0 25
1 21
2 22
3 16
4 20
5 17
6 25
7 19
8 16
9 10
10 22
11 22
12 14
13 25
14 15
15 17
16 23
17 17
18 13
19 20
20 22
21 11
22 14
23 25
24 18
25 25
26 16
;
param cs := 
0 36
1 24
2 22
3 31
4 33
5 25
6 25
7 26
8 22
9 23
10 32
11 27
12 28
13 31
14 36
15 29
16 35
17 29
18 27
19 27
20 30
21 29
22 26
23 36
24 22
25 23
26 31
27 40
28 22
29 40
30 32
31 24
32 35
33 25
34 26
35 31
36 29
37 36
38 21
39 36
40 24
41 28
42 27
43 21
44 26
45 32
46 33
47 21
48 25
49 30
50 20
51 38
52 32
53 23
54 33
55 25
56 29
57 20
58 39
;
param bv:	 0 1 2 3 4 5 6 7 8 9 10 11 12 13 14 15 16 17 18 19 20 21 22 23 24 25 26 := 
		0 0 0 0 0 0 0 0 0 14 0 0 0 18 0 0 0 0 0 0 0 0 0 20 0 0 0 0 
		1 0 0 0 0 0 0 18 0 0 0 0 0 0 0 0 0 0 0 0 0 0 0 19 0 23 0 0 
		2 0 0 0 0 0 13 0 0 0 0 0 0 0 13 25 0 0 0 0 18 0 24 0 0 0 22 25 
		3 0 0 0 0 0 0 0 23 0 0 0 0 0 0 0 0 0 0 0 0 0 0 18 0 0 0 0 
		4 0 0 0 0 0 0 0 0 0 0 0 14 19 0 0 0 0 0 0 0 0 0 0 0 0 0 0 
		5 0 0 0 0 0 0 0 23 0 0 0 0 0 0 0 0 0 0 0 0 0 0 0 0 0 0 0 
		6 0 0 0 0 0 0 0 0 0 0 0 0 0 13 0 19 0 16 0 0 0 0 0 0 0 0 22 
		7 0 0 0 0 0 0 0 0 11 0 0 0 0 0 0 0 0 11 0 0 0 0 0 0 0 0 0 
		8 0 0 0 0 0 0 0 0 0 0 0 0 0 0 0 0 0 19 0 0 25 20 0 0 0 0 0 
		9 0 0 0 0 0 0 0 0 0 0 0 21 0 19 0 0 0 0 14 0 0 0 0 0 0 0 0 
		10 0 0 0 0 0 0 0 0 0 0 0 19 0 0 0 0 0 0 0 0 0 23 0 0 0 0 0 
		11 0 0 0 0 0 0 0 0 0 0 0 0 0 0 0 0 0 0 0 0 0 16 0 0 0 0 0 
		12 0 0 0 0 0 0 0 0 0 0 0 0 0 0 0 0 0 0 0 0 0 0 0 0 0 0 0 
		13 0 0 0 0 0 0 0 0 0 0 0 0 0 0 16 0 20 0 0 0 0 0 21 0 25 14 0 
		14 0 0 0 0 0 0 0 0 0 0 0 0 0 0 0 0 0 0 0 0 0 0 0 0 18 12 0 
		15 0 0 0 0 0 0 0 0 0 0 0 0 0 0 0 0 20 0 0 0 0 0 0 0 0 0 13 
		16 0 0 0 0 0 0 0 0 0 0 0 0 0 0 0 0 0 0 0 0 0 0 0 0 0 0 0 
		17 0 0 0 0 0 0 0 0 0 0 0 0 0 0 0 0 0 0 0 0 0 0 0 0 0 0 20 
		18 0 0 0 0 0 0 0 0 0 0 0 0 0 0 0 0 0 0 0 0 13 0 0 0 0 0 0 
		19 0 0 0 0 0 0 0 0 0 0 0 0 0 0 0 0 0 0 0 0 0 0 0 0 0 0 0 
		20 0 0 0 0 0 0 0 0 0 0 0 0 0 0 0 0 0 0 0 0 0 0 0 0 0 0 0 
		21 0 0 0 0 0 0 0 0 0 0 0 0 0 0 0 0 0 0 0 0 0 0 0 0 19 0 0 
		22 0 0 0 0 0 0 0 0 0 0 0 0 0 0 0 0 0 0 0 0 0 0 0 0 0 0 0 
		23 0 0 0 0 0 0 0 0 0 0 0 0 0 0 0 0 0 0 0 0 0 0 0 0 0 0 20 
		24 0 0 0 0 0 0 0 0 0 0 0 0 0 0 0 0 0 0 0 0 0 0 0 0 0 0 0 
		25 0 0 0 0 0 0 0 0 0 0 0 0 0 0 0 0 0 0 0 0 0 0 0 0 0 0 0 
		26 0 0 0 0 0 0 0 0 0 0 0 0 0 0 0 0 0 0 0 0 0 0 0 0 0 0 0 
;
param bs:	 0 1 2 3 4 5 6 7 8 9 10 11 12 13 14 15 16 17 18 19 20 21 22 23 24 25 26 27 28 29 30 31 32 33 34 35 36 37 38 39 40 41 42 43 44 45 46 47 48 49 50 51 52 53 54 55 56 57 58 := 
		0 0 0 0 0 0 0 0 0 0 0 0 0 0 0 0 0 0 0 0 0 0 36 0 0 0 0 0 0 0 0 0 0 0 0 0 0 0 0 0 0 0 0 0 35 0 0 0 0 0 0 0 0 0 0 0 0 0 39 0 
		1 0 0 0 0 0 0 0 0 0 0 0 0 0 0 0 0 0 0 34 0 0 0 0 0 0 0 0 0 0 0 0 0 0 0 0 0 22 0 0 0 40 0 0 0 0 0 0 0 0 0 36 0 0 40 0 0 0 0 0 
		2 0 0 0 0 0 0 0 0 0 0 0 28 0 0 0 0 0 0 0 0 0 0 21 0 0 0 0 0 0 29 0 0 0 0 0 0 0 25 0 0 0 0 0 23 0 0 0 0 0 37 32 26 0 0 0 0 0 0 0 
		3 0 0 0 0 0 0 0 0 23 0 0 0 0 0 0 0 37 0 0 0 0 27 0 0 0 0 0 0 0 0 0 0 0 33 0 0 23 0 0 0 27 37 0 0 0 0 0 0 0 0 0 0 0 0 0 0 0 0 0 
		4 0 0 0 0 0 0 0 0 0 0 36 0 0 0 0 0 0 0 0 0 29 0 0 0 0 0 0 0 0 0 0 0 0 0 0 0 0 0 0 0 0 0 0 0 0 20 0 0 0 0 0 0 0 31 0 0 0 0 0 
		5 0 0 0 0 0 0 0 0 0 0 0 0 0 0 0 0 0 0 30 0 0 0 0 27 0 0 0 0 0 0 0 28 0 38 0 0 0 0 0 0 34 0 0 0 0 0 0 0 0 0 0 31 0 0 0 0 0 0 0 
		6 0 0 0 0 0 0 0 0 0 0 27 31 0 22 0 32 0 0 0 0 0 0 0 0 0 0 0 0 0 0 0 0 25 20 0 0 0 0 0 0 0 0 0 0 0 0 0 0 25 21 0 0 0 0 0 0 0 0 29 
		7 0 0 0 0 0 0 0 0 0 23 0 0 0 0 0 28 0 0 0 0 0 0 0 0 0 0 0 0 0 0 0 0 0 0 0 0 0 0 0 0 0 0 0 0 0 0 0 0 0 0 0 0 0 0 0 0 0 0 0 
		8 0 0 0 23 0 0 0 0 0 0 0 0 0 0 0 0 0 0 0 0 0 0 0 0 0 0 0 0 0 0 0 0 0 25 0 0 0 0 0 0 0 23 37 0 0 0 0 0 0 0 0 0 0 0 0 28 0 0 0 
		9 0 0 0 0 0 0 0 23 0 0 0 0 0 38 0 0 0 0 0 0 0 0 0 0 0 0 0 0 0 0 0 0 0 0 0 0 0 0 37 0 0 0 0 0 0 0 23 0 0 0 0 0 0 0 32 0 0 0 0 
		10 0 0 0 0 36 0 27 0 0 0 0 26 0 0 0 0 0 0 0 0 0 0 0 0 0 0 0 0 0 23 0 0 31 0 0 0 0 0 0 0 0 33 0 0 0 33 0 0 0 0 0 22 0 0 0 0 0 0 0 
		11 0 0 28 0 0 0 31 0 0 0 26 0 0 0 0 0 0 32 0 0 0 0 0 33 0 0 0 0 0 0 0 0 0 0 0 0 0 0 0 35 0 0 0 34 0 0 0 0 0 0 0 0 0 24 0 0 40 0 0 
		12 0 0 0 0 0 0 0 0 0 0 0 0 0 0 0 0 0 0 0 0 0 0 0 0 0 0 0 0 22 0 0 0 0 0 0 0 0 0 0 0 0 0 0 0 0 0 0 0 0 0 0 0 0 0 26 0 0 0 0 
		13 0 0 0 0 0 0 22 0 0 38 0 0 0 0 0 37 0 0 0 0 0 0 0 0 0 0 0 0 0 0 38 0 0 0 0 0 0 0 22 0 0 0 0 0 0 0 0 0 0 0 0 0 0 0 0 0 0 0 0 
		14 0 0 0 0 0 0 0 0 0 0 0 0 0 0 0 0 0 0 0 0 39 0 0 0 0 0 0 0 0 0 0 0 0 0 0 0 0 32 0 0 0 0 0 0 0 0 39 0 0 0 0 0 0 0 0 0 0 0 0 
		15 0 0 0 0 0 0 32 28 0 0 0 0 0 37 0 0 0 0 0 34 0 0 0 0 0 0 0 0 0 26 0 0 0 25 0 0 0 0 0 0 0 0 0 0 36 0 0 31 0 27 0 0 0 0 0 0 31 0 0 
		16 0 0 0 37 0 0 0 0 0 0 0 0 0 0 0 0 0 0 39 0 0 0 0 0 0 0 22 35 0 0 0 0 0 0 0 0 0 0 0 0 0 0 0 0 0 0 22 0 0 0 0 0 0 0 0 0 0 39 31 
		17 0 0 0 0 0 0 0 0 0 0 0 32 0 0 0 0 0 0 0 0 21 0 0 0 0 33 0 0 0 0 0 0 32 0 0 0 0 0 0 0 0 0 0 0 0 0 21 0 0 0 0 0 0 0 0 0 0 0 0 
		18 0 34 0 0 0 30 0 0 0 0 0 0 0 0 0 0 39 0 0 0 0 0 0 0 0 0 0 0 0 36 0 34 0 0 0 0 0 0 0 0 24 35 0 0 0 0 0 28 40 0 0 0 0 0 22 29 0 38 0 
		19 0 0 0 0 0 0 0 0 0 0 0 0 0 0 0 34 0 0 0 0 0 0 0 0 0 0 0 0 0 0 0 0 0 0 0 0 0 0 0 0 0 0 0 0 20 0 0 0 0 0 0 0 0 0 0 0 0 0 0 
		20 0 0 0 0 29 0 0 0 0 0 0 0 0 0 39 0 0 21 0 0 0 38 0 0 0 31 0 0 0 40 0 0 38 0 0 0 0 0 0 0 0 0 0 0 0 0 0 0 0 0 0 0 26 0 0 0 0 0 21 
		21 36 0 0 27 0 0 0 0 0 0 0 0 0 0 0 0 0 0 0 0 38 0 0 37 34 0 0 0 0 0 0 0 0 0 0 0 0 38 0 0 0 0 0 0 0 0 0 0 29 0 0 0 0 0 0 0 0 0 26 
		22 0 0 21 0 0 0 0 0 0 0 0 0 0 0 0 0 0 0 0 0 0 0 0 0 0 33 0 0 0 0 0 21 0 0 0 0 0 0 0 0 0 0 0 0 0 0 0 0 0 0 0 0 0 0 0 0 0 0 0 
		23 0 0 0 0 0 27 0 0 0 0 0 33 0 0 0 0 0 0 0 0 0 37 0 0 0 30 0 0 0 0 0 0 0 40 0 0 0 0 0 0 0 26 34 0 0 31 0 0 0 0 0 0 0 33 37 0 0 0 0 
		24 0 0 0 0 0 0 0 0 0 0 0 0 0 0 0 0 0 0 0 0 0 34 0 0 0 0 0 0 0 0 0 0 0 0 0 0 0 0 39 0 0 0 0 0 33 0 0 0 0 0 0 0 0 0 0 0 0 0 0 
		25 0 0 0 0 0 0 0 0 0 0 0 0 0 0 0 0 0 33 0 0 31 0 33 30 0 0 22 0 0 0 0 0 0 0 0 0 0 0 0 0 0 0 0 0 0 0 0 38 0 0 0 0 0 0 0 0 0 0 0 
		26 0 0 0 0 0 0 0 0 0 0 0 0 0 0 0 0 22 0 0 0 0 0 0 0 0 22 0 0 0 0 0 0 0 0 0 35 0 0 0 0 23 0 0 0 0 0 0 0 0 0 0 0 0 0 0 30 0 36 0 
		27 0 0 0 0 0 0 0 0 0 0 0 0 0 0 0 0 35 0 0 0 0 0 0 0 0 0 0 0 0 0 0 0 0 0 0 0 0 25 23 0 0 0 0 0 0 0 0 0 0 0 0 0 0 0 21 0 0 0 0 
		28 0 0 0 0 0 0 0 0 0 0 0 0 22 0 0 0 0 0 0 0 0 0 0 0 0 0 0 0 0 0 0 0 0 0 0 0 0 0 0 0 0 0 0 0 0 0 0 0 0 0 39 0 0 0 0 0 20 0 23 
		29 0 0 29 0 0 0 0 0 0 0 23 0 0 0 0 26 0 0 36 0 40 0 0 0 0 0 0 0 0 0 0 0 0 0 0 0 0 0 0 0 30 0 0 0 0 0 0 0 0 0 0 31 0 0 0 0 0 0 0 
		30 0 0 0 0 0 0 0 0 0 0 0 0 0 38 0 0 0 0 0 0 0 0 0 0 0 0 0 0 0 0 0 0 0 0 0 0 0 0 0 0 0 0 0 0 0 0 0 0 20 0 0 0 0 0 0 0 0 0 0 
		31 0 0 0 0 0 28 0 0 0 0 0 0 0 0 0 0 0 0 34 0 0 0 21 0 0 0 0 0 0 0 0 0 0 0 40 0 0 0 0 0 0 35 0 0 0 0 0 0 0 39 0 0 0 0 0 0 0 28 0 
		32 0 0 0 0 0 0 25 0 0 0 31 0 0 0 0 0 0 32 0 0 38 0 0 0 0 0 0 0 0 0 0 0 0 0 0 0 0 0 0 0 0 0 26 0 0 0 0 0 0 0 0 0 0 0 0 0 0 0 0 
		33 0 0 0 33 0 38 20 0 25 0 0 0 0 0 0 25 0 0 0 0 0 0 0 40 0 0 0 0 0 0 0 0 0 0 0 0 0 0 0 0 0 29 31 20 0 0 0 0 0 0 0 0 0 0 0 0 0 0 0 
		34 0 0 0 0 0 0 0 0 0 0 0 0 0 0 0 0 0 0 0 0 0 0 0 0 0 0 0 0 0 0 0 40 0 0 0 0 0 0 26 0 0 0 0 0 0 0 0 0 0 0 0 0 0 0 0 0 32 0 0 
		35 0 0 0 0 0 0 0 0 0 0 0 0 0 0 0 0 0 0 0 0 0 0 0 0 0 0 35 0 0 0 0 0 0 0 0 0 0 27 0 0 0 0 0 0 0 0 0 0 0 0 0 0 0 28 0 0 0 0 0 
		36 0 22 0 23 0 0 0 0 0 0 0 0 0 0 0 0 0 0 0 0 0 0 0 0 0 0 0 0 0 0 0 0 0 0 0 0 0 0 0 0 0 20 0 0 0 0 0 0 0 28 0 0 0 0 0 0 0 0 0 
		37 0 0 25 0 0 0 0 0 0 0 0 0 0 0 32 0 0 0 0 0 0 38 0 0 0 0 0 25 0 0 0 0 0 0 0 27 0 0 0 0 0 0 0 0 0 0 0 23 0 20 0 0 32 0 0 0 35 0 33 
		38 0 0 0 0 0 0 0 0 0 37 0 0 0 22 0 0 0 0 0 0 0 0 0 0 39 0 0 23 0 0 0 0 0 0 26 0 0 0 0 31 0 0 0 0 0 0 0 0 0 0 0 0 0 23 0 0 0 0 0 
		39 0 0 0 0 0 0 0 0 0 0 0 35 0 0 0 0 0 0 0 0 0 0 0 0 0 0 0 0 0 0 0 0 0 0 0 0 0 0 31 0 0 0 0 0 0 0 0 0 25 0 0 0 0 0 0 0 0 0 0 
		40 0 40 0 27 0 34 0 0 0 0 0 0 0 0 0 0 0 0 24 0 0 0 0 0 0 0 23 0 0 30 0 0 0 0 0 0 0 0 0 0 0 0 0 0 0 0 0 0 0 0 0 0 0 30 0 0 0 0 0 
		41 0 0 0 37 0 0 0 0 23 0 33 0 0 0 0 0 0 0 35 0 0 0 0 26 0 0 0 0 0 0 0 35 0 29 0 0 20 0 0 0 0 0 0 0 0 0 0 0 0 0 0 0 0 0 0 0 0 0 0 
		42 0 0 0 0 0 0 0 0 37 0 0 0 0 0 0 0 0 0 0 0 0 0 0 34 0 0 0 0 0 0 0 0 26 31 0 0 0 0 0 0 0 0 0 25 0 0 0 28 0 0 0 0 0 21 0 20 0 40 24 
		43 35 0 23 0 0 0 0 0 0 0 0 34 0 0 0 0 0 0 0 0 0 0 0 0 0 0 0 0 0 0 0 0 0 20 0 0 0 0 0 0 0 0 25 0 0 0 0 0 0 0 25 0 0 0 0 0 0 0 0 
		44 0 0 0 0 0 0 0 0 0 0 0 0 0 0 0 36 0 0 0 20 0 0 0 0 33 0 0 0 0 0 0 0 0 0 0 0 0 0 0 0 0 0 0 0 0 0 0 0 0 0 0 0 0 0 0 0 0 0 0 
		45 0 0 0 0 20 0 0 0 0 0 33 0 0 0 0 0 0 0 0 0 0 0 0 31 0 0 0 0 0 0 0 0 0 0 0 0 0 0 0 0 0 0 0 0 0 0 0 0 0 0 0 36 0 0 0 0 0 0 0 
		46 0 0 0 0 0 0 0 0 0 23 0 0 0 0 39 0 22 21 0 0 0 0 0 0 0 0 0 0 0 0 0 0 0 0 0 0 0 0 0 0 0 0 0 0 0 0 0 0 0 0 0 0 0 0 0 0 0 0 0 
		47 0 0 0 0 0 0 0 0 0 0 0 0 0 0 0 31 0 0 28 0 0 0 0 0 0 38 0 0 0 0 0 0 0 0 0 0 0 23 0 0 0 0 28 0 0 0 0 0 0 0 0 0 0 0 0 0 0 0 0 
		48 0 0 0 0 0 0 25 0 0 0 0 0 0 0 0 0 0 0 40 0 0 29 0 0 0 0 0 0 0 0 20 0 0 0 0 0 0 0 0 25 0 0 0 0 0 0 0 0 0 0 0 0 0 0 0 0 0 0 0 
		49 0 0 37 0 0 0 21 0 0 0 0 0 0 0 0 27 0 0 0 0 0 0 0 0 0 0 0 0 0 0 0 39 0 0 0 0 28 20 0 0 0 0 0 0 0 0 0 0 0 0 0 0 0 0 0 0 0 0 0 
		50 0 36 32 0 0 0 0 0 0 0 0 0 0 0 0 0 0 0 0 0 0 0 0 0 0 0 0 0 39 0 0 0 0 0 0 0 0 0 0 0 0 0 0 25 0 0 0 0 0 0 0 0 0 0 0 34 0 0 0 
		51 0 0 26 0 0 31 0 0 0 0 22 0 0 0 0 0 0 0 0 0 0 0 0 0 0 0 0 0 0 31 0 0 0 0 0 0 0 0 0 0 0 0 0 0 0 36 0 0 0 0 0 0 0 0 29 0 0 40 0 
		52 0 0 0 0 0 0 0 0 0 0 0 0 0 0 0 0 0 0 0 0 26 0 0 0 0 0 0 0 0 0 0 0 0 0 0 0 0 32 0 0 0 0 0 0 0 0 0 0 0 0 0 0 0 0 0 0 0 0 0 
		53 0 40 0 0 31 0 0 0 0 0 0 24 0 0 0 0 0 0 0 0 0 0 0 33 0 0 0 0 0 0 0 0 0 0 0 28 0 0 23 0 30 0 21 0 0 0 0 0 0 0 0 0 0 0 0 0 0 0 0 
		54 0 0 0 0 0 0 0 0 0 32 0 0 26 0 0 0 0 0 22 0 0 0 0 37 0 0 0 21 0 0 0 0 0 0 0 0 0 0 0 0 0 0 0 0 0 0 0 0 0 0 0 29 0 0 0 26 0 0 0 
		55 0 0 0 0 0 0 0 0 28 0 0 0 0 0 0 0 0 0 29 0 0 0 0 0 0 0 30 0 0 0 0 0 0 0 0 0 0 0 0 0 0 0 20 0 0 0 0 0 0 0 34 0 0 0 26 0 0 0 0 
		56 0 0 0 0 0 0 0 0 0 0 0 40 0 0 0 31 0 0 0 0 0 0 0 0 0 0 0 0 20 0 0 0 0 0 32 0 0 35 0 0 0 0 0 0 0 0 0 0 0 0 0 0 0 0 0 0 0 0 0 
		57 39 0 0 0 0 0 0 0 0 0 0 0 0 0 0 0 39 0 38 0 0 0 0 0 0 0 36 0 0 0 0 28 0 0 0 0 0 0 0 0 0 0 40 0 0 0 0 0 0 0 0 40 0 0 0 0 0 0 0 
		58 0 0 0 0 0 0 29 0 0 0 0 0 0 0 0 0 31 0 0 0 21 26 0 0 0 0 0 0 23 0 0 0 0 0 0 0 0 33 0 0 0 0 24 0 0 0 0 0 0 0 0 0 0 0 0 0 0 0 0 
;
